interdiction/MCDM/NO_CORR/GEN_FROM_60/13_ITEMS_1000_GEN/K5013W02.KNP.mps
NAME          BLANK   
ROWS
 N  OBJROW
 L  R0000000
COLUMNS
    C0000000  OBJROW     -720.         R0000000  807.        
    C0000001  OBJROW     -800.         R0000000  155.        
    C0000002  OBJROW     -650.         R0000000  737.        
    C0000003  OBJROW     -608.         R0000000  314.        
    C0000004  OBJROW     -290.         R0000000  328.        
    C0000005  OBJROW     -755.         R0000000  602.        
    C0000006  OBJROW     -920.         R0000000  151.        
    C0000007  OBJROW     -811.         R0000000  812.        
    C0000008  OBJROW     -561.         R0000000  259.        
    C0000009  OBJROW     -522.         R0000000  720.        
    C0000010  OBJROW     -220.         R0000000  952.        
    C0000011  OBJROW     -727.         R0000000  631.        
    C0000012  OBJROW     -682.         R0000000  3.          
RHS
    RHS       R0000000  14144.      
BOUNDS
 BV BOUND     C0000000  1.          
 BV BOUND     C0000001  1.          
 BV BOUND     C0000002  1.          
 BV BOUND     C0000003  1.          
 BV BOUND     C0000004  1.          
 BV BOUND     C0000005  1.          
 BV BOUND     C0000006  1.          
 BV BOUND     C0000007  1.          
 BV BOUND     C0000008  1.          
 BV BOUND     C0000009  1.          
 BV BOUND     C0000010  1.          
 BV BOUND     C0000011  1.          
 BV BOUND     C0000012  1.          
ENDATA
