data/MCDM/NO_CORR/GEN_FROM_60/13_ITEMS_1000_GEN/K5013W02.KNP.txt
N 13
M 14
LC 13
LC 14
LC 15
LC 16
LC 17
LC 18
LC 19
LC 20
LC 21
LC 22
LC 23
LC 24
LC 25
LR 1
LR 2
LR 3
LR 4
LR 5
LR 6
LR 7
LR 8
LR 9
LR 10
LR 11
LR 12
LR 13
LR 14
LO -720
LO -800
LO -650
LO -608
LO -290
LO -755
LO -920
LO -811
LO -561
LO -522
LO -220
LO -727
LO -682
OS 1
IC 315
IC 797
IC 229
IC 781
IC 719
IC 992
IC 603
IC 198
IC 172
IC 45
IC 368
IC 98
IC 168
IB 2743
